154704 528 4950 9778998 177176 0.97
154486 532 4950 9656109 177188 0.97
154918 467 4950 8763762 175260 0.98
155482 495 4950 8821004 176800 0.97
157162 414 4950 4997779 176716 0.95
154758 477 4950 8419316 179164 0.99
154148 574 4950 7830908 181396 1
154068 472 4950 6922288 177326 0.97
154542 517 4950 7762223 177990 0.99
155448 556 4950 8839453 179850 0.98
